c SAT Generator for power-law distributed variable frequencies
c -g u -v 20 -c 91 -k 3 -p 2.750000 -b 3.200000 -f /home/schmidt/Devel/ni-kop-sat/data/ensemble/ruf20-91/ruf20-91-366 -u 1 -U 1 -s 3941095165
p cnf 20 91
-9 12 15 0
-10 -11 -16 0
11 13 -19 0
17 -19 20 0
7 -11 16 0
12 15 19 0
2 8 9 0
3 11 -12 0
8 -12 19 0
2 -10 -13 0
5 -9 10 0
-7 8 -11 0
-4 -10 -11 0
4 11 -19 0
-7 16 -20 0
-2 -7 -20 0
-7 12 -15 0
-4 13 -20 0
8 -16 -17 0
5 -12 -18 0
10 13 -19 0
16 18 -20 0
12 14 19 0
-1 -9 11 0
13 -14 -19 0
5 -11 16 0
8 -14 16 0
4 -6 11 0
1 -7 -14 0
-7 -14 -17 0
-5 -12 -14 0
7 -9 10 0
10 -13 -15 0
-9 -14 -20 0
4 12 13 0
14 -17 19 0
-2 5 12 0
-3 9 -18 0
5 11 15 0
1 12 -13 0
4 -7 11 0
-5 -15 -16 0
-1 11 -18 0
-1 2 8 0
1 -3 11 0
6 8 -15 0
-9 -11 -17 0
3 -14 -15 0
13 15 17 0
5 17 -20 0
-1 13 -17 0
4 -12 17 0
4 -6 7 0
5 8 14 0
6 -14 15 0
-4 16 -19 0
-1 -13 15 0
1 -4 -18 0
-3 11 -19 0
-3 18 -20 0
-3 -4 6 0
-4 -7 -15 0
1 5 15 0
8 18 20 0
-7 8 20 0
1 -10 13 0
-6 10 -20 0
-1 -8 19 0
8 10 -20 0
9 15 20 0
-1 -16 20 0
-14 -17 18 0
-3 -12 -15 0
-5 -13 -18 0
-2 -10 20 0
-2 14 -16 0
-4 5 -6 0
3 -4 5 0
-12 -16 -18 0
-4 13 20 0
6 7 -11 0
-7 11 -15 0
6 16 -19 0
8 -10 -20 0
3 -11 12 0
11 12 20 0
-1 -6 -20 0
-4 9 12 0
-1 -4 -12 0
1 -2 -10 0
-10 11 20 0
